skinny/ZC_model.lp
Minimize

Subject To
x_0_0 = 1
x_0_1 = 0
x_0_2 = 0
x_0_3 = 0
x_0_4 = 0
x_0_5 = 0
x_0_6 = 0
x_0_7 = 0
x_0_8 = 0
x_0_9 = 0
x_0_10 = 0
x_0_11 = 0
x_0_12 = 0
x_0_13 = 0
x_0_14 = 0
x_0_15 = 0
x_0_4 + x_0_8 - v0 >= 0
x_0_4 + v0 - x_0_8 >= 0
x_0_8 + v0 - x_0_4 >= 0
x_0_12 - x_1_0 = 0
x_0_0 + v0 - x_1_7 >= 0
x_0_0 + x_1_7 - v0 >= 0
v0 + x_1_7 - x_0_0 >= 0
x_0_4 - x_1_10 = 0
x_0_12 + v0 - x_1_13 >= 0
x_0_12 + x_1_13 - v0 >= 0
v0 + x_1_13 - x_0_12 >= 0
x_0_5 + x_0_9 - v1 >= 0
x_0_5 + v1 - x_0_9 >= 0
x_0_9 + v1 - x_0_5 >= 0
x_0_13 - x_1_1 = 0
x_0_1 + v1 - x_1_4 >= 0
x_0_1 + x_1_4 - v1 >= 0
v1 + x_1_4 - x_0_1 >= 0
x_0_5 - x_1_11 = 0
x_0_13 + v1 - x_1_14 >= 0
x_0_13 + x_1_14 - v1 >= 0
v1 + x_1_14 - x_0_13 >= 0
x_0_6 + x_0_10 - v2 >= 0
x_0_6 + v2 - x_0_10 >= 0
x_0_10 + v2 - x_0_6 >= 0
x_0_14 - x_1_2 = 0
x_0_2 + v2 - x_1_5 >= 0
x_0_2 + x_1_5 - v2 >= 0
v2 + x_1_5 - x_0_2 >= 0
x_0_6 - x_1_8 = 0
x_0_14 + v2 - x_1_15 >= 0
x_0_14 + x_1_15 - v2 >= 0
v2 + x_1_15 - x_0_14 >= 0
x_0_7 + x_0_11 - v3 >= 0
x_0_7 + v3 - x_0_11 >= 0
x_0_11 + v3 - x_0_7 >= 0
x_0_15 - x_1_3 = 0
x_0_3 + v3 - x_1_6 >= 0
x_0_3 + x_1_6 - v3 >= 0
v3 + x_1_6 - x_0_3 >= 0
x_0_7 - x_1_9 = 0
x_0_15 + v3 - x_1_12 >= 0
x_0_15 + x_1_12 - v3 >= 0
v3 + x_1_12 - x_0_15 >= 0
x_1_4 + x_1_8 - v4 >= 0
x_1_4 + v4 - x_1_8 >= 0
x_1_8 + v4 - x_1_4 >= 0
x_1_12 - x_2_0 = 0
x_1_0 + v4 - x_2_7 >= 0
x_1_0 + x_2_7 - v4 >= 0
v4 + x_2_7 - x_1_0 >= 0
x_1_4 - x_2_10 = 0
x_1_12 + v4 - x_2_13 >= 0
x_1_12 + x_2_13 - v4 >= 0
v4 + x_2_13 - x_1_12 >= 0
x_1_5 + x_1_9 - v5 >= 0
x_1_5 + v5 - x_1_9 >= 0
x_1_9 + v5 - x_1_5 >= 0
x_1_13 - x_2_1 = 0
x_1_1 + v5 - x_2_4 >= 0
x_1_1 + x_2_4 - v5 >= 0
v5 + x_2_4 - x_1_1 >= 0
x_1_5 - x_2_11 = 0
x_1_13 + v5 - x_2_14 >= 0
x_1_13 + x_2_14 - v5 >= 0
v5 + x_2_14 - x_1_13 >= 0
x_1_6 + x_1_10 - v6 >= 0
x_1_6 + v6 - x_1_10 >= 0
x_1_10 + v6 - x_1_6 >= 0
x_1_14 - x_2_2 = 0
x_1_2 + v6 - x_2_5 >= 0
x_1_2 + x_2_5 - v6 >= 0
v6 + x_2_5 - x_1_2 >= 0
x_1_6 - x_2_8 = 0
x_1_14 + v6 - x_2_15 >= 0
x_1_14 + x_2_15 - v6 >= 0
v6 + x_2_15 - x_1_14 >= 0
x_1_7 + x_1_11 - v7 >= 0
x_1_7 + v7 - x_1_11 >= 0
x_1_11 + v7 - x_1_7 >= 0
x_1_15 - x_2_3 = 0
x_1_3 + v7 - x_2_6 >= 0
x_1_3 + x_2_6 - v7 >= 0
v7 + x_2_6 - x_1_3 >= 0
x_1_7 - x_2_9 = 0
x_1_15 + v7 - x_2_12 >= 0
x_1_15 + x_2_12 - v7 >= 0
v7 + x_2_12 - x_1_15 >= 0
x_2_4 + x_2_8 - v8 >= 0
x_2_4 + v8 - x_2_8 >= 0
x_2_8 + v8 - x_2_4 >= 0
x_2_12 - x_3_0 = 0
x_2_0 + v8 - x_3_7 >= 0
x_2_0 + x_3_7 - v8 >= 0
v8 + x_3_7 - x_2_0 >= 0
x_2_4 - x_3_10 = 0
x_2_12 + v8 - x_3_13 >= 0
x_2_12 + x_3_13 - v8 >= 0
v8 + x_3_13 - x_2_12 >= 0
x_2_5 + x_2_9 - v9 >= 0
x_2_5 + v9 - x_2_9 >= 0
x_2_9 + v9 - x_2_5 >= 0
x_2_13 - x_3_1 = 0
x_2_1 + v9 - x_3_4 >= 0
x_2_1 + x_3_4 - v9 >= 0
v9 + x_3_4 - x_2_1 >= 0
x_2_5 - x_3_11 = 0
x_2_13 + v9 - x_3_14 >= 0
x_2_13 + x_3_14 - v9 >= 0
v9 + x_3_14 - x_2_13 >= 0
x_2_6 + x_2_10 - v10 >= 0
x_2_6 + v10 - x_2_10 >= 0
x_2_10 + v10 - x_2_6 >= 0
x_2_14 - x_3_2 = 0
x_2_2 + v10 - x_3_5 >= 0
x_2_2 + x_3_5 - v10 >= 0
v10 + x_3_5 - x_2_2 >= 0
x_2_6 - x_3_8 = 0
x_2_14 + v10 - x_3_15 >= 0
x_2_14 + x_3_15 - v10 >= 0
v10 + x_3_15 - x_2_14 >= 0
x_2_7 + x_2_11 - v11 >= 0
x_2_7 + v11 - x_2_11 >= 0
x_2_11 + v11 - x_2_7 >= 0
x_2_15 - x_3_3 = 0
x_2_3 + v11 - x_3_6 >= 0
x_2_3 + x_3_6 - v11 >= 0
v11 + x_3_6 - x_2_3 >= 0
x_2_7 - x_3_9 = 0
x_2_15 + v11 - x_3_12 >= 0
x_2_15 + x_3_12 - v11 >= 0
v11 + x_3_12 - x_2_15 >= 0
x_3_4 + x_3_8 - v12 >= 0
x_3_4 + v12 - x_3_8 >= 0
x_3_8 + v12 - x_3_4 >= 0
x_3_12 - x_4_0 = 0
x_3_0 + v12 - x_4_7 >= 0
x_3_0 + x_4_7 - v12 >= 0
v12 + x_4_7 - x_3_0 >= 0
x_3_4 - x_4_10 = 0
x_3_12 + v12 - x_4_13 >= 0
x_3_12 + x_4_13 - v12 >= 0
v12 + x_4_13 - x_3_12 >= 0
x_3_5 + x_3_9 - v13 >= 0
x_3_5 + v13 - x_3_9 >= 0
x_3_9 + v13 - x_3_5 >= 0
x_3_13 - x_4_1 = 0
x_3_1 + v13 - x_4_4 >= 0
x_3_1 + x_4_4 - v13 >= 0
v13 + x_4_4 - x_3_1 >= 0
x_3_5 - x_4_11 = 0
x_3_13 + v13 - x_4_14 >= 0
x_3_13 + x_4_14 - v13 >= 0
v13 + x_4_14 - x_3_13 >= 0
x_3_6 + x_3_10 - v14 >= 0
x_3_6 + v14 - x_3_10 >= 0
x_3_10 + v14 - x_3_6 >= 0
x_3_14 - x_4_2 = 0
x_3_2 + v14 - x_4_5 >= 0
x_3_2 + x_4_5 - v14 >= 0
v14 + x_4_5 - x_3_2 >= 0
x_3_6 - x_4_8 = 0
x_3_14 + v14 - x_4_15 >= 0
x_3_14 + x_4_15 - v14 >= 0
v14 + x_4_15 - x_3_14 >= 0
x_3_7 + x_3_11 - v15 >= 0
x_3_7 + v15 - x_3_11 >= 0
x_3_11 + v15 - x_3_7 >= 0
x_3_15 - x_4_3 = 0
x_3_3 + v15 - x_4_6 >= 0
x_3_3 + x_4_6 - v15 >= 0
v15 + x_4_6 - x_3_3 >= 0
x_3_7 - x_4_9 = 0
x_3_15 + v15 - x_4_12 >= 0
x_3_15 + x_4_12 - v15 >= 0
v15 + x_4_12 - x_3_15 >= 0
x_4_4 + x_4_8 - v16 >= 0
x_4_4 + v16 - x_4_8 >= 0
x_4_8 + v16 - x_4_4 >= 0
x_4_12 - x_5_0 = 0
x_4_0 + v16 - x_5_7 >= 0
x_4_0 + x_5_7 - v16 >= 0
v16 + x_5_7 - x_4_0 >= 0
x_4_4 - x_5_10 = 0
x_4_12 + v16 - x_5_13 >= 0
x_4_12 + x_5_13 - v16 >= 0
v16 + x_5_13 - x_4_12 >= 0
x_4_5 + x_4_9 - v17 >= 0
x_4_5 + v17 - x_4_9 >= 0
x_4_9 + v17 - x_4_5 >= 0
x_4_13 - x_5_1 = 0
x_4_1 + v17 - x_5_4 >= 0
x_4_1 + x_5_4 - v17 >= 0
v17 + x_5_4 - x_4_1 >= 0
x_4_5 - x_5_11 = 0
x_4_13 + v17 - x_5_14 >= 0
x_4_13 + x_5_14 - v17 >= 0
v17 + x_5_14 - x_4_13 >= 0
x_4_6 + x_4_10 - v18 >= 0
x_4_6 + v18 - x_4_10 >= 0
x_4_10 + v18 - x_4_6 >= 0
x_4_14 - x_5_2 = 0
x_4_2 + v18 - x_5_5 >= 0
x_4_2 + x_5_5 - v18 >= 0
v18 + x_5_5 - x_4_2 >= 0
x_4_6 - x_5_8 = 0
x_4_14 + v18 - x_5_15 >= 0
x_4_14 + x_5_15 - v18 >= 0
v18 + x_5_15 - x_4_14 >= 0
x_4_7 + x_4_11 - v19 >= 0
x_4_7 + v19 - x_4_11 >= 0
x_4_11 + v19 - x_4_7 >= 0
x_4_15 - x_5_3 = 0
x_4_3 + v19 - x_5_6 >= 0
x_4_3 + x_5_6 - v19 >= 0
v19 + x_5_6 - x_4_3 >= 0
x_4_7 - x_5_9 = 0
x_4_15 + v19 - x_5_12 >= 0
x_4_15 + x_5_12 - v19 >= 0
v19 + x_5_12 - x_4_15 >= 0
x_5_4 + x_5_8 - v20 >= 0
x_5_4 + v20 - x_5_8 >= 0
x_5_8 + v20 - x_5_4 >= 0
x_5_12 - x_6_0 = 0
x_5_0 + v20 - x_6_7 >= 0
x_5_0 + x_6_7 - v20 >= 0
v20 + x_6_7 - x_5_0 >= 0
x_5_4 - x_6_10 = 0
x_5_12 + v20 - x_6_13 >= 0
x_5_12 + x_6_13 - v20 >= 0
v20 + x_6_13 - x_5_12 >= 0
x_5_5 + x_5_9 - v21 >= 0
x_5_5 + v21 - x_5_9 >= 0
x_5_9 + v21 - x_5_5 >= 0
x_5_13 - x_6_1 = 0
x_5_1 + v21 - x_6_4 >= 0
x_5_1 + x_6_4 - v21 >= 0
v21 + x_6_4 - x_5_1 >= 0
x_5_5 - x_6_11 = 0
x_5_13 + v21 - x_6_14 >= 0
x_5_13 + x_6_14 - v21 >= 0
v21 + x_6_14 - x_5_13 >= 0
x_5_6 + x_5_10 - v22 >= 0
x_5_6 + v22 - x_5_10 >= 0
x_5_10 + v22 - x_5_6 >= 0
x_5_14 - x_6_2 = 0
x_5_2 + v22 - x_6_5 >= 0
x_5_2 + x_6_5 - v22 >= 0
v22 + x_6_5 - x_5_2 >= 0
x_5_6 - x_6_8 = 0
x_5_14 + v22 - x_6_15 >= 0
x_5_14 + x_6_15 - v22 >= 0
v22 + x_6_15 - x_5_14 >= 0
x_5_7 + x_5_11 - v23 >= 0
x_5_7 + v23 - x_5_11 >= 0
x_5_11 + v23 - x_5_7 >= 0
x_5_15 - x_6_3 = 0
x_5_3 + v23 - x_6_6 >= 0
x_5_3 + x_6_6 - v23 >= 0
v23 + x_6_6 - x_5_3 >= 0
x_5_7 - x_6_9 = 0
x_5_15 + v23 - x_6_12 >= 0
x_5_15 + x_6_12 - v23 >= 0
v23 + x_6_12 - x_5_15 >= 0
x_6_4 + x_6_8 - v24 >= 0
x_6_4 + v24 - x_6_8 >= 0
x_6_8 + v24 - x_6_4 >= 0
x_6_12 - x_7_0 = 0
x_6_0 + v24 - x_7_7 >= 0
x_6_0 + x_7_7 - v24 >= 0
v24 + x_7_7 - x_6_0 >= 0
x_6_4 - x_7_10 = 0
x_6_12 + v24 - x_7_13 >= 0
x_6_12 + x_7_13 - v24 >= 0
v24 + x_7_13 - x_6_12 >= 0
x_6_5 + x_6_9 - v25 >= 0
x_6_5 + v25 - x_6_9 >= 0
x_6_9 + v25 - x_6_5 >= 0
x_6_13 - x_7_1 = 0
x_6_1 + v25 - x_7_4 >= 0
x_6_1 + x_7_4 - v25 >= 0
v25 + x_7_4 - x_6_1 >= 0
x_6_5 - x_7_11 = 0
x_6_13 + v25 - x_7_14 >= 0
x_6_13 + x_7_14 - v25 >= 0
v25 + x_7_14 - x_6_13 >= 0
x_6_6 + x_6_10 - v26 >= 0
x_6_6 + v26 - x_6_10 >= 0
x_6_10 + v26 - x_6_6 >= 0
x_6_14 - x_7_2 = 0
x_6_2 + v26 - x_7_5 >= 0
x_6_2 + x_7_5 - v26 >= 0
v26 + x_7_5 - x_6_2 >= 0
x_6_6 - x_7_8 = 0
x_6_14 + v26 - x_7_15 >= 0
x_6_14 + x_7_15 - v26 >= 0
v26 + x_7_15 - x_6_14 >= 0
x_6_7 + x_6_11 - v27 >= 0
x_6_7 + v27 - x_6_11 >= 0
x_6_11 + v27 - x_6_7 >= 0
x_6_15 - x_7_3 = 0
x_6_3 + v27 - x_7_6 >= 0
x_6_3 + x_7_6 - v27 >= 0
v27 + x_7_6 - x_6_3 >= 0
x_6_7 - x_7_9 = 0
x_6_15 + v27 - x_7_12 >= 0
x_6_15 + x_7_12 - v27 >= 0
v27 + x_7_12 - x_6_15 >= 0
x_7_4 + x_7_8 - v28 >= 0
x_7_4 + v28 - x_7_8 >= 0
x_7_8 + v28 - x_7_4 >= 0
x_7_12 - x_8_0 = 0
x_7_0 + v28 - x_8_7 >= 0
x_7_0 + x_8_7 - v28 >= 0
v28 + x_8_7 - x_7_0 >= 0
x_7_4 - x_8_10 = 0
x_7_12 + v28 - x_8_13 >= 0
x_7_12 + x_8_13 - v28 >= 0
v28 + x_8_13 - x_7_12 >= 0
x_7_5 + x_7_9 - v29 >= 0
x_7_5 + v29 - x_7_9 >= 0
x_7_9 + v29 - x_7_5 >= 0
x_7_13 - x_8_1 = 0
x_7_1 + v29 - x_8_4 >= 0
x_7_1 + x_8_4 - v29 >= 0
v29 + x_8_4 - x_7_1 >= 0
x_7_5 - x_8_11 = 0
x_7_13 + v29 - x_8_14 >= 0
x_7_13 + x_8_14 - v29 >= 0
v29 + x_8_14 - x_7_13 >= 0
x_7_6 + x_7_10 - v30 >= 0
x_7_6 + v30 - x_7_10 >= 0
x_7_10 + v30 - x_7_6 >= 0
x_7_14 - x_8_2 = 0
x_7_2 + v30 - x_8_5 >= 0
x_7_2 + x_8_5 - v30 >= 0
v30 + x_8_5 - x_7_2 >= 0
x_7_6 - x_8_8 = 0
x_7_14 + v30 - x_8_15 >= 0
x_7_14 + x_8_15 - v30 >= 0
v30 + x_8_15 - x_7_14 >= 0
x_7_7 + x_7_11 - v31 >= 0
x_7_7 + v31 - x_7_11 >= 0
x_7_11 + v31 - x_7_7 >= 0
x_7_15 - x_8_3 = 0
x_7_3 + v31 - x_8_6 >= 0
x_7_3 + x_8_6 - v31 >= 0
v31 + x_8_6 - x_7_3 >= 0
x_7_7 - x_8_9 = 0
x_7_15 + v31 - x_8_12 >= 0
x_7_15 + x_8_12 - v31 >= 0
v31 + x_8_12 - x_7_15 >= 0
x_8_4 + x_8_8 - v32 >= 0
x_8_4 + v32 - x_8_8 >= 0
x_8_8 + v32 - x_8_4 >= 0
x_8_12 - x_9_0 = 0
x_8_0 + v32 - x_9_7 >= 0
x_8_0 + x_9_7 - v32 >= 0
v32 + x_9_7 - x_8_0 >= 0
x_8_4 - x_9_10 = 0
x_8_12 + v32 - x_9_13 >= 0
x_8_12 + x_9_13 - v32 >= 0
v32 + x_9_13 - x_8_12 >= 0
x_8_5 + x_8_9 - v33 >= 0
x_8_5 + v33 - x_8_9 >= 0
x_8_9 + v33 - x_8_5 >= 0
x_8_13 - x_9_1 = 0
x_8_1 + v33 - x_9_4 >= 0
x_8_1 + x_9_4 - v33 >= 0
v33 + x_9_4 - x_8_1 >= 0
x_8_5 - x_9_11 = 0
x_8_13 + v33 - x_9_14 >= 0
x_8_13 + x_9_14 - v33 >= 0
v33 + x_9_14 - x_8_13 >= 0
x_8_6 + x_8_10 - v34 >= 0
x_8_6 + v34 - x_8_10 >= 0
x_8_10 + v34 - x_8_6 >= 0
x_8_14 - x_9_2 = 0
x_8_2 + v34 - x_9_5 >= 0
x_8_2 + x_9_5 - v34 >= 0
v34 + x_9_5 - x_8_2 >= 0
x_8_6 - x_9_8 = 0
x_8_14 + v34 - x_9_15 >= 0
x_8_14 + x_9_15 - v34 >= 0
v34 + x_9_15 - x_8_14 >= 0
x_8_7 + x_8_11 - v35 >= 0
x_8_7 + v35 - x_8_11 >= 0
x_8_11 + v35 - x_8_7 >= 0
x_8_15 - x_9_3 = 0
x_8_3 + v35 - x_9_6 >= 0
x_8_3 + x_9_6 - v35 >= 0
v35 + x_9_6 - x_8_3 >= 0
x_8_7 - x_9_9 = 0
x_8_15 + v35 - x_9_12 >= 0
x_8_15 + x_9_12 - v35 >= 0
v35 + x_9_12 - x_8_15 >= 0
x_9_4 + x_9_8 - v36 >= 0
x_9_4 + v36 - x_9_8 >= 0
x_9_8 + v36 - x_9_4 >= 0
x_9_12 - x_10_0 = 0
x_9_0 + v36 - x_10_7 >= 0
x_9_0 + x_10_7 - v36 >= 0
v36 + x_10_7 - x_9_0 >= 0
x_9_4 - x_10_10 = 0
x_9_12 + v36 - x_10_13 >= 0
x_9_12 + x_10_13 - v36 >= 0
v36 + x_10_13 - x_9_12 >= 0
x_9_5 + x_9_9 - v37 >= 0
x_9_5 + v37 - x_9_9 >= 0
x_9_9 + v37 - x_9_5 >= 0
x_9_13 - x_10_1 = 0
x_9_1 + v37 - x_10_4 >= 0
x_9_1 + x_10_4 - v37 >= 0
v37 + x_10_4 - x_9_1 >= 0
x_9_5 - x_10_11 = 0
x_9_13 + v37 - x_10_14 >= 0
x_9_13 + x_10_14 - v37 >= 0
v37 + x_10_14 - x_9_13 >= 0
x_9_6 + x_9_10 - v38 >= 0
x_9_6 + v38 - x_9_10 >= 0
x_9_10 + v38 - x_9_6 >= 0
x_9_14 - x_10_2 = 0
x_9_2 + v38 - x_10_5 >= 0
x_9_2 + x_10_5 - v38 >= 0
v38 + x_10_5 - x_9_2 >= 0
x_9_6 - x_10_8 = 0
x_9_14 + v38 - x_10_15 >= 0
x_9_14 + x_10_15 - v38 >= 0
v38 + x_10_15 - x_9_14 >= 0
x_9_7 + x_9_11 - v39 >= 0
x_9_7 + v39 - x_9_11 >= 0
x_9_11 + v39 - x_9_7 >= 0
x_9_15 - x_10_3 = 0
x_9_3 + v39 - x_10_6 >= 0
x_9_3 + x_10_6 - v39 >= 0
v39 + x_10_6 - x_9_3 >= 0
x_9_7 - x_10_9 = 0
x_9_15 + v39 - x_10_12 >= 0
x_9_15 + x_10_12 - v39 >= 0
v39 + x_10_12 - x_9_15 >= 0
x_10_0 = 1
x_10_1 = 0
x_10_2 = 0
x_10_3 = 0
x_10_4 = 0
x_10_5 = 0
x_10_6 = 0
x_10_7 = 0
x_10_8 = 0
x_10_9 = 0
x_10_10 = 0
x_10_11 = 0
x_10_12 = 0
x_10_13 = 0
x_10_14 = 0
x_10_15 = 0
Binary
x_0_0
x_0_1
x_0_2
x_0_3
x_0_4
x_0_5
x_0_6
x_0_7
x_0_8
x_0_9
x_0_10
x_0_11
x_0_12
x_0_13
x_0_14
x_0_15
x_1_0
x_1_1
x_1_2
x_1_3
x_1_4
x_1_5
x_1_6
x_1_7
x_1_8
x_1_9
x_1_10
x_1_11
x_1_12
x_1_13
x_1_14
x_1_15
x_2_0
x_2_1
x_2_2
x_2_3
x_2_4
x_2_5
x_2_6
x_2_7
x_2_8
x_2_9
x_2_10
x_2_11
x_2_12
x_2_13
x_2_14
x_2_15
x_3_0
x_3_1
x_3_2
x_3_3
x_3_4
x_3_5
x_3_6
x_3_7
x_3_8
x_3_9
x_3_10
x_3_11
x_3_12
x_3_13
x_3_14
x_3_15
x_4_0
x_4_1
x_4_2
x_4_3
x_4_4
x_4_5
x_4_6
x_4_7
x_4_8
x_4_9
x_4_10
x_4_11
x_4_12
x_4_13
x_4_14
x_4_15
x_5_0
x_5_1
x_5_2
x_5_3
x_5_4
x_5_5
x_5_6
x_5_7
x_5_8
x_5_9
x_5_10
x_5_11
x_5_12
x_5_13
x_5_14
x_5_15
x_6_0
x_6_1
x_6_2
x_6_3
x_6_4
x_6_5
x_6_6
x_6_7
x_6_8
x_6_9
x_6_10
x_6_11
x_6_12
x_6_13
x_6_14
x_6_15
x_7_0
x_7_1
x_7_2
x_7_3
x_7_4
x_7_5
x_7_6
x_7_7
x_7_8
x_7_9
x_7_10
x_7_11
x_7_12
x_7_13
x_7_14
x_7_15
x_8_0
x_8_1
x_8_2
x_8_3
x_8_4
x_8_5
x_8_6
x_8_7
x_8_8
x_8_9
x_8_10
x_8_11
x_8_12
x_8_13
x_8_14
x_8_15
x_9_0
x_9_1
x_9_2
x_9_3
x_9_4
x_9_5
x_9_6
x_9_7
x_9_8
x_9_9
x_9_10
x_9_11
x_9_12
x_9_13
x_9_14
x_9_15
x_10_0
x_10_1
x_10_2
x_10_3
x_10_4
x_10_5
x_10_6
x_10_7
x_10_8
x_10_9
x_10_10
x_10_11
x_10_12
x_10_13
x_10_14
x_10_15
v0
v1
v2
v3
v4
v5
v6
v7
v8
v9
v10
v11
v12
v13
v14
v15
v16
v17
v18
v19
v20
v21
v22
v23
v24
v25
v26
v27
v28
v29
v30
v31
v32
v33
v34
v35
v36
v37
v38
v39
END